n = 122;
m = 4;
L =[15,18,18,16];
d =[0,6,4,2,2,3,10,2,7,4,6,4,7,4,10,9,1,9,10,5,9,8,3,3,7,8,10,9,5,2,10,6,9,10,6,9,10,9,2,8,2,2,2,8,2,2,1,2,7,5,7,2,9,9,1,10,10,8,9,3,4,2,7,10,2,5,5,3,2,6,3,7,6,1,7,5,4,5,6,10,1,9,1,8,6,9,2,7,3,7,10,1,5,5,3,1,3,5,5,10,6,5,8,10,10,6,2,2,2,10,1,3,4,5,9,3,1,10,3,8,9,0];
res =[|0,9,0,2,0,1,6,0,0,10,3,0,0,0,0,0,0,0,0,0,5,7,9,9,10,0,0,4,0,0,0,0,0,0,0,0,8,0,0,4,0,9,0,0,3,0,0,0,0,9,0,0,3,0,0,0,0,0,4,0,0,0,0,0,4,4,2,0,0,0,0,5,2,2,5,0,0,0,0,0,7,0,0,0,0,3,3,0,0,9,0,0,8,4,0,0,0,4,0,0,0,0,9,5,0,6,0,3,3,7,8,0,0,3,5,0,0,0,0,0,6,0|0,0,0,0,0,0,0,6,7,0,0,0,1,0,0,0,0,0,8,0,0,0,0,0,0,0,0,0,5,2,0,0,0,0,0,5,0,0,0,0,0,0,0,7,0,6,0,0,0,0,0,0,0,0,0,6,0,3,0,8,0,0,4,0,0,0,0,3,0,0,6,0,0,0,0,0,6,0,0,4,0,0,0,10,0,0,0,0,0,0,0,0,0,0,0,0,9,0,6,0,0,0,0,0,3,0,0,0,0,0,0,0,0,0,0,4,0,9,0,7,0,0|0,0,4,0,6,0,0,0,0,0,0,9,0,0,0,0,5,10,0,0,0,0,0,0,0,6,9,0,0,0,0,3,3,0,9,0,0,0,0,0,0,0,0,0,0,0,6,0,0,0,0,3,0,0,7,0,2,0,0,0,0,0,0,9,0,0,0,0,10,0,0,0,0,0,0,0,0,2,0,0,0,4,0,0,0,0,0,10,8,0,0,0,0,0,0,9,0,0,0,0,0,0,0,0,0,0,10,0,0,0,0,8,0,0,0,0,4,0,0,0,0,0|0,0,0,0,0,0,0,0,0,0,0,0,0,4,1,5,0,0,0,6,0,0,0,0,0,0,0,0,0,0,1,0,0,4,0,0,0,4,6,0,1,0,2,0,0,0,0,7,3,0,3,0,0,1,0,0,0,0,0,0,4,5,0,0,0,0,0,0,0,5,0,0,0,0,0,6,0,0,7,0,0,0,5,0,5,0,0,0,0,0,5,4,0,0,2,0,0,0,0,6,1,7,0,0,0,0,0,0,0,0,0,0,6,0,0,0,0,0,7,0,0,0|];
